
;this file is automatically generated: Wed Feb 26 14:38:42 CST 2020

;declarations generated

(declare-fun oclExcludes ( Int Int) Bool)
(declare-fun Cardinality ( Int) Int)
(declare-fun class0_Class0IntAttr3 ( Int) Int)
(declare-fun class0_Class0IntAttr4 ( Int) Int)
(declare-fun obj_6a391678_28d2_42ea_9bf4_dcbbc97549f8 ( Int) Int)
(declare-fun type_ea23735a_8294_431f_b007_0d7b5332ae86_Class5 ( Int) Bool)
(declare-fun type_ea23735a_8294_431f_b007_0d7b5332ae86_Class0 ( Int) Bool)
(declare-fun type_ea23735a_8294_431f_b007_0d7b5332ae86_Class13 ( Int) Bool)
(declare-fun type_ea23735a_8294_431f_b007_0d7b5332ae86_Class11 ( Int) Bool)
(declare-fun oclSelect ( Int Bool) Int)
(declare-fun Enum0 ( Int) Int)
(declare-fun Enum1 ( Int) Int)
(declare-fun container_ ( Int) Int)
(declare-fun oclIncludes ( Int Int) Bool)
(declare-fun ObjAt ( Int Int) Int)

;formula(s) generated
(assert (! (forall ((c0_1 Int)(c0_2 Int)) (=> (and (and (and (and ( type_ea23735a_8294_431f_b007_0d7b5332ae86_Class0 c0_1 )  ( type_ea23735a_8294_431f_b007_0d7b5332ae86_Class11 c0_1 ) ) ( type_ea23735a_8294_431f_b007_0d7b5332ae86_Class13 c0_1 ) ) ( type_ea23735a_8294_431f_b007_0d7b5332ae86_Class5 c0_1 ) ) (and (and (and ( type_ea23735a_8294_431f_b007_0d7b5332ae86_Class0 c0_2 )  ( type_ea23735a_8294_431f_b007_0d7b5332ae86_Class11 c0_2 ) ) ( type_ea23735a_8294_431f_b007_0d7b5332ae86_Class13 c0_2 ) ) ( type_ea23735a_8294_431f_b007_0d7b5332ae86_Class5 c0_2 ) )) (< ( class0_Class0IntAttr3 ( obj_6a391678_28d2_42ea_9bf4_dcbbc97549f8 c0_1 )  )  ( class0_Class0IntAttr4 ( obj_6a391678_28d2_42ea_9bf4_dcbbc97549f8 c0_2 )  ) ))):named l0))
(assert (! (forall ((v Int)) (=> (and (and (and ( type_ea23735a_8294_431f_b007_0d7b5332ae86_Class0 v )  ( type_ea23735a_8294_431f_b007_0d7b5332ae86_Class11 v ) ) ( type_ea23735a_8294_431f_b007_0d7b5332ae86_Class13 v ) ) ( type_ea23735a_8294_431f_b007_0d7b5332ae86_Class5 v ) ) (> ( class0_Class0IntAttr3 ( obj_6a391678_28d2_42ea_9bf4_dcbbc97549f8 v )  )  15))):named l1))
(assert (exists ((o Int)) (and (and (and ( type_ea23735a_8294_431f_b007_0d7b5332ae86_Class0 ( obj_6a391678_28d2_42ea_9bf4_dcbbc97549f8 o )  )  ( type_ea23735a_8294_431f_b007_0d7b5332ae86_Class11 ( obj_6a391678_28d2_42ea_9bf4_dcbbc97549f8 o )  ) ) ( type_ea23735a_8294_431f_b007_0d7b5332ae86_Class13 ( obj_6a391678_28d2_42ea_9bf4_dcbbc97549f8 o )  ) ) ( type_ea23735a_8294_431f_b007_0d7b5332ae86_Class5 ( obj_6a391678_28d2_42ea_9bf4_dcbbc97549f8 o )  ) )))

 ;end of formula 